71
125
100	4
99	2
98	1
97	1
96	5
95	2
94	3
92	2
90	2
89	2
88	1
87	3
85	1
84	3
83	1
82	4
81	3
80	2
79	4
78	2
77	1
76	1
75	3
74	3
72	2
71	5
70	4
69	2
68	2
67	5
66	4
65	2
64	2
63	6
61	2
60	5
59	4
58	3
57	3
56	2
55	1
54	1
53	4
52	2
51	1
50	3
49	5
48	5
47	1
46	2
45	3
44	2
43	3
42	3
41	2
40	2
39	5
38	3
37	3
36	3
35	6
34	4
33	5
32	2
31	2
30	4
29	1
28	4
27	5
26	3
25	1
